NAME conservation_srl_ilp
* Max problem is converted into Min one
ROWS
 N  OBJ
 L  constraint1_2260
 L  constraint2_2260
 L  constraint2_2261
 L  constraint2_2262
 L  constraint2_2263
COLUMNS
    MARKER    'MARKER'                 'INTORG'
    Z_226_0_0  OBJ       -1.3293869293202546e-04
    Z_226_0_0  constraint1_2260  1
    Z_226_0_0  constraint2_2260  1
    Z_226_0_1  OBJ       -8.3167379330217547e-03
    Z_226_0_1  constraint1_2260  1
    Z_226_0_1  constraint2_2261  1
    Z_226_0_2  OBJ       -8.4519702535015162e-01
    Z_226_0_2  constraint1_2260  1
    Z_226_0_2  constraint2_2262  1
    Z_226_0_3  OBJ       -1.9235140823636685e-03
    Z_226_0_3  constraint1_2260  1
    Z_226_0_3  constraint2_2263  1
    Z_226_0_4  OBJ       -4.4429783941530944e-02
    Z_226_0_4  constraint1_2260  1
    MARKER    'MARKER'                 'INTEND'
RHS
    RHS1      constraint1_2260  1
    RHS1      constraint2_2260  1
    RHS1      constraint2_2261  1
    RHS1      constraint2_2262  1
    RHS1      constraint2_2263  1
BOUNDS
 UP BND1      Z_226_0_0  1
 UP BND1      Z_226_0_1  1
 UP BND1      Z_226_0_2  1
 UP BND1      Z_226_0_3  1
 UP BND1      Z_226_0_4  1
ENDATA
